NAME : problems/40-tsp/instance-20.tsp
COMMENT : No Comment
TYPE : TSP
DIMENSION: 40
EDGE_WEIGHT_TYPE : EUC_2D
NODE_COORD_SECTION
1 2631 9411 
2 9503 2054 
3 5940 9145 
4 6335 1385 
5 8804 4868 
6 417 5710 
7 5951 945 
8 831 6893 
9 1853 1560 
10 8221 9551 
11 1570 5294 
12 5792 3458 
13 7383 9287 
14 1938 7648 
15 3464 1847 
16 7453 6121 
17 7147 6810 
18 1320 6120 
19 3939 637 
20 1145 3177 
21 2258 8353 
22 2717 3176 
23 3231 3698 
24 7134 9556 
25 298 9228 
26 42 4370 
27 5 3502 
28 5884 2114 
29 9616 6196 
30 3605 3526 
31 9150 6419 
32 9844 3855 
33 5319 6429 
34 835 8109 
35 1032 7989 
36 6099 1422 
37 5940 2921 
38 5856 4349 
39 8898 9777 
40 924 5112 
EOF
